c User generated cnf file
p cnf 7 18
6 -1 4 0 
7 7 -1 0 
7 1 -5 0 
4 4 -7 0 
1 -7 2 0 
3 2 -6 0 
5 -7 5 0 
1 6 -7 0 
2 -5 4 0 
6 -7 2 0 
1 7 -5 0 
1 1 -3 0 
1 -6 4 0 
5 -7 2 0 
1 -4 2 0 
1 7 -5 0 
1 6 -1 0 
1 -3 1 0 
